(declare-const a Real)
(declare-const b Real)
(declare-const c Real)
(assert (= (+ a b c) 3))
(assert (>= a 0))
(assert (>= b 0))
(assert (>= c 0))
(assert (not (<= (+ (* -1 (pow a 5)) (* -2 (pow b 5)) (* (pow b 2) (+ (* (/ 1 3) (pow a 3)) (* (/ 2 3) (pow b 3)))) (* 2 (pow a 2) (pow b 3))) 0)))
(check-sat)
(get-model)
(exit)